NAME: random-63-28282
TYPE: TSP
COMMENT: size=63 seed=28282
DIMENSION: 128
EDGE_WEIGHT_TYPE: EUC_2D
NODE_COORD_SECTION
+0 574 378
-0 574 378
+1 911 480
-1 898 843
+2 769 140
-2 718 100
+3 597 725
-3 70 786
+4 507 179
-4 459 754
+5 317 977
-5 859 116
+6 563 512
-6 718 778
+7 157 813
-7 339 200
+8 350 20
-8 821 405
+9 954 394
-9 162 718
+10 752 668
-10 440 770
+11 148 505
-11 935 75
+12 44 400
-12 616 529
+13 228 430
-13 856 457
+14 895 883
-14 502 982
+15 109 416
-15 971 534
+16 994 956
-16 545 854
+17 108 111
-17 516 634
+18 178 598
-18 576 203
+19 802 0
-19 411 704
+20 866 893
-20 522 192
+21 709 802
-21 423 76
+22 80 926
-22 51 725
+23 641 872
-23 165 490
+24 774 81
-24 964 652
+25 470 203
-25 688 675
+26 125 907
-26 543 656
+27 503 522
-27 445 681
+28 542 773
-28 933 378
+29 898 519
-29 165 48
+30 589 119
-30 160 357
+31 670 451
-31 191 565
+32 640 224
-32 649 603
+33 727 221
-33 877 167
+34 939 500
-34 140 724
+35 597 402
-35 100 144
+36 289 460
-36 10 6
+37 360 740
-37 523 529
+38 882 55
-38 265 874
+39 297 874
-39 303 868
+40 863 14
-40 796 184
+41 222 361
-41 926 656
+42 200 800
-42 362 699
+43 284 327
-43 185 576
+44 168 651
-44 283 635
+45 975 417
-45 638 195
+46 91 281
-46 532 788
+47 808 578
-47 392 53
+48 210 96
-48 978 357
+49 662 37
-49 503 236
+50 13 417
-50 730 848
+51 619 76
-51 709 103
+52 183 231
-52 376 477
+53 735 434
-53 836 869
+54 541 960
-54 483 517
+55 944 767
-55 949 411
+56 775 82
-56 167 359
+57 771 54
-57 168 283
+58 707 896
-58 718 791
+59 309 972
-59 363 773
+60 50 218
-60 476 681
+61 997 210
-61 353 888
+62 561 485
-62 656 388
+63 319 364
-63 760 760
PRECEDENCE_SECTION
+0 -0
+1 -1
+2 -2
+3 -3
+4 -4
+5 -5
+6 -6
+7 -7
+8 -8
+9 -9
+10 -10
+11 -11
+12 -12
+13 -13
+14 -14
+15 -15
+16 -16
+17 -17
+18 -18
+19 -19
+20 -20
+21 -21
+22 -22
+23 -23
+24 -24
+25 -25
+26 -26
+27 -27
+28 -28
+29 -29
+30 -30
+31 -31
+32 -32
+33 -33
+34 -34
+35 -35
+36 -36
+37 -37
+38 -38
+39 -39
+40 -40
+41 -41
+42 -42
+43 -43
+44 -44
+45 -45
+46 -46
+47 -47
+48 -48
+49 -49
+50 -50
+51 -51
+52 -52
+53 -53
+54 -54
+55 -55
+56 -56
+57 -57
+58 -58
+59 -59
+60 -60
+61 -61
+62 -62
+63 -63
EOF
